language ESSENCE' 1.0
$ loaded file: carseqdata/csplib-instance-51
letting numcars=200
letting numclasses=25
letting numoptions=5
letting optMax=[1, 2, 1, 2, 1]
letting windowSize=[2, 3, 3, 5, 5]
letting numberPerClass=[4, 6, 19, 1, 6, 8, 2, 6, 13, 3, 4, 12, 25, 3, 12, 7, 1, 1, 1, 2, 42, 2, 4, 13, 3]
letting optionsRequired=[[1, 0, 1, 1, 0], [1, 0, 0, 0, 1], [1, 1, 0, 0, 0], [1, 1, 1, 0, 1], [1, 1, 1, 0, 0], [0, 0, 0, 0, 1], [1, 1, 0, 0, 1], [1, 1, 0, 1, 0], [0, 1, 0, 1, 0], [0, 0, 1, 0, 1], [1, 0, 1, 0, 1], [0, 0, 1, 0, 0], [0, 0, 0, 1, 0], [0, 1, 1, 0, 1], [0, 0, 1, 1, 0], [1, 0, 1, 0, 0], [1, 0, 0, 1, 1], [0, 1, 0, 1, 1], [0, 0, 1, 1, 1], [0, 0, 0, 1, 1], [0, 1, 0, 0, 0], [0, 1, 1, 0, 0], [0, 1, 0, 0, 0], [1, 0, 0, 0, 0], [1, 0, 0, 1, 0]]
